(set-info :status unknown)
(declare-const symbol_25 (_ BitVec 32))
(declare-const symbol_27 (_ BitVec 32))
(declare-const symbol_17 (_ BitVec 32))
(declare-const symbol_4 (_ BitVec 32))
(declare-const symbol_10 (_ BitVec 32))
(declare-const symbol_26 (_ BitVec 32))
(declare-const symbol_28 (_ BitVec 32))
(declare-const symbol_29 (_ BitVec 32))
(declare-const symbol_15 (_ BitVec 32))
(declare-const symbol_23 (_ BitVec 32))
(declare-const symbol_0 (_ BitVec 32))
(declare-const symbol_9 (_ BitVec 32))
(declare-const symbol_16 (_ BitVec 32))
(declare-const symbol_11 (_ BitVec 32))
(declare-const symbol_3 (_ BitVec 32))
(declare-const symbol_14 (_ BitVec 32))
(declare-const symbol_24 (_ BitVec 32))
(declare-const symbol_1 (_ BitVec 32))
(declare-const symbol_6 (_ BitVec 32))
(declare-const symbol_22 (_ BitVec 32))
(declare-const symbol_18 (_ BitVec 32))
(declare-const symbol_19 (_ BitVec 32))
(declare-const symbol_21 (_ BitVec 32))
(declare-const symbol_2 (_ BitVec 32))
(declare-const symbol_20 (_ BitVec 32))
(declare-const symbol_13 (_ BitVec 32))
(declare-const symbol_7 (_ BitVec 32))
(declare-const symbol_12 (_ BitVec 32))
(declare-const symbol_8 (_ BitVec 32))
(declare-const symbol_5 (_ BitVec 32))
(assert (= symbol_29 symbol_11))
(assert (not (= symbol_29 symbol_12)))
(assert (not (= symbol_29 symbol_13)))
(assert (not (= symbol_29 symbol_14)))
(assert (not (= symbol_29 symbol_15)))
(assert (not (= symbol_29 symbol_16)))
(assert (not (= symbol_29 symbol_17)))
(assert (not (= symbol_29 symbol_18)))
(assert (not (= symbol_29 symbol_19)))
(assert (not (= symbol_29 symbol_20)))
(assert (not (= symbol_29 symbol_21)))
(assert (not (= symbol_29 symbol_22)))
(assert (not (= symbol_29 symbol_23)))
(assert (not (= symbol_29 symbol_24)))
(assert (not (= symbol_29 symbol_25)))
(assert (not (= symbol_29 symbol_26)))
(assert (not (= symbol_29 symbol_27)))
(assert (not (= symbol_29 symbol_28)))
(assert (not (= symbol_28 symbol_0)))
(assert (not (= symbol_28 symbol_1)))
(assert (not (= symbol_28 symbol_2)))
(assert (not (= symbol_28 symbol_3)))
(assert (not (= symbol_28 symbol_4)))
(assert (not (= symbol_28 symbol_5)))
(assert (not (= symbol_28 symbol_6)))
(assert (not (= symbol_28 symbol_7)))
(assert (not (= symbol_28 symbol_8)))
(assert (not (= symbol_28 symbol_9)))
(assert (not (= symbol_28 symbol_10)))
(assert (not (= symbol_28 symbol_11)))
(assert (not (= symbol_28 symbol_12)))
(assert (not (= symbol_28 symbol_13)))
(assert (not (= symbol_28 symbol_14)))
(assert (not (= symbol_28 symbol_15)))
(assert (not (= symbol_28 symbol_16)))
(assert (not (= symbol_28 symbol_17)))
(assert (not (= symbol_28 symbol_18)))
(assert (not (= symbol_28 symbol_19)))
(assert (not (= symbol_28 symbol_20)))
(assert (not (= symbol_28 symbol_21)))
(assert (not (= symbol_28 symbol_22)))
(assert (not (= symbol_28 symbol_23)))
(assert (not (= symbol_28 symbol_24)))
(assert (not (= symbol_28 symbol_25)))
(assert (not (= symbol_28 symbol_26)))
(assert (not (= symbol_28 symbol_27)))
(assert (not (= symbol_27 symbol_0)))
(assert (not (= symbol_27 symbol_1)))
(assert (not (= symbol_27 symbol_2)))
(assert (not (= symbol_27 symbol_3)))
(assert (not (= symbol_27 symbol_4)))
(assert (not (= symbol_27 symbol_5)))
(assert (not (= symbol_27 symbol_6)))
(assert (not (= symbol_27 symbol_7)))
(assert (not (= symbol_27 symbol_8)))
(assert (not (= symbol_27 symbol_9)))
(assert (not (= symbol_27 symbol_10)))
(assert (not (= symbol_27 symbol_11)))
(assert (not (= symbol_27 symbol_12)))
(assert (not (= symbol_27 symbol_13)))
(assert (not (= symbol_27 symbol_14)))
(assert (not (= symbol_27 symbol_15)))
(assert (not (= symbol_27 symbol_16)))
(assert (not (= symbol_27 symbol_17)))
(assert (not (= symbol_27 symbol_18)))
(assert (not (= symbol_27 symbol_19)))
(assert (not (= symbol_27 symbol_20)))
(assert (not (= symbol_27 symbol_21)))
(assert (not (= symbol_27 symbol_22)))
(assert (not (= symbol_27 symbol_23)))
(assert (not (= symbol_27 symbol_24)))
(assert (not (= symbol_27 symbol_25)))
(assert (not (= symbol_27 symbol_26)))
(assert (not (= symbol_26 symbol_0)))
(assert (not (= symbol_26 symbol_1)))
(assert (not (= symbol_26 symbol_2)))
(assert (not (= symbol_26 symbol_3)))
(assert (not (= symbol_26 symbol_4)))
(assert (not (= symbol_26 symbol_5)))
(assert (not (= symbol_26 symbol_6)))
(assert (not (= symbol_26 symbol_7)))
(assert (not (= symbol_26 symbol_8)))
(assert (not (= symbol_26 symbol_9)))
(assert (not (= symbol_26 symbol_10)))
(assert (not (= symbol_26 symbol_11)))
(assert (not (= symbol_26 symbol_12)))
(assert (not (= symbol_26 symbol_13)))
(assert (not (= symbol_26 symbol_14)))
(assert (not (= symbol_26 symbol_15)))
(assert (not (= symbol_26 symbol_16)))
(assert (not (= symbol_26 symbol_17)))
(assert (not (= symbol_26 symbol_18)))
(assert (not (= symbol_26 symbol_19)))
(assert (not (= symbol_26 symbol_20)))
(assert (not (= symbol_26 symbol_21)))
(assert (not (= symbol_26 symbol_22)))
(assert (not (= symbol_26 symbol_23)))
(assert (not (= symbol_26 symbol_24)))
(assert (not (= symbol_26 symbol_25)))
(assert (not (= symbol_25 symbol_0)))
(assert (not (= symbol_25 symbol_1)))
(assert (not (= symbol_25 symbol_2)))
(assert (not (= symbol_25 symbol_3)))
(assert (not (= symbol_25 symbol_4)))
(assert (not (= symbol_25 symbol_5)))
(assert (not (= symbol_25 symbol_6)))
(assert (not (= symbol_25 symbol_7)))
(assert (not (= symbol_25 symbol_8)))
(assert (not (= symbol_25 symbol_9)))
(assert (not (= symbol_25 symbol_10)))
(assert (not (= symbol_25 symbol_11)))
(assert (not (= symbol_25 symbol_12)))
(assert (not (= symbol_25 symbol_13)))
(assert (not (= symbol_25 symbol_14)))
(assert (not (= symbol_25 symbol_15)))
(assert (not (= symbol_25 symbol_16)))
(assert (not (= symbol_25 symbol_17)))
(assert (not (= symbol_25 symbol_18)))
(assert (not (= symbol_25 symbol_19)))
(assert (not (= symbol_25 symbol_20)))
(assert (not (= symbol_25 symbol_21)))
(assert (not (= symbol_25 symbol_22)))
(assert (not (= symbol_25 symbol_23)))
(assert (not (= symbol_25 symbol_24)))
(assert (not (= symbol_24 symbol_0)))
(assert (not (= symbol_24 symbol_1)))
(assert (not (= symbol_24 symbol_2)))
(assert (not (= symbol_24 symbol_3)))
(assert (not (= symbol_24 symbol_4)))
(assert (not (= symbol_24 symbol_5)))
(assert (not (= symbol_24 symbol_6)))
(assert (not (= symbol_24 symbol_7)))
(assert (not (= symbol_24 symbol_8)))
(assert (not (= symbol_24 symbol_9)))
(assert (not (= symbol_24 symbol_10)))
(assert (not (= symbol_24 symbol_11)))
(assert (not (= symbol_24 symbol_12)))
(assert (not (= symbol_24 symbol_13)))
(assert (not (= symbol_24 symbol_14)))
(assert (not (= symbol_24 symbol_15)))
(assert (not (= symbol_24 symbol_16)))
(assert (not (= symbol_24 symbol_17)))
(assert (not (= symbol_24 symbol_18)))
(assert (not (= symbol_24 symbol_19)))
(assert (not (= symbol_24 symbol_20)))
(assert (not (= symbol_24 symbol_21)))
(assert (not (= symbol_24 symbol_22)))
(assert (not (= symbol_24 symbol_23)))
(assert (not (= symbol_23 symbol_0)))
(assert (not (= symbol_23 symbol_1)))
(assert (not (= symbol_23 symbol_2)))
(assert (not (= symbol_23 symbol_3)))
(assert (not (= symbol_23 symbol_4)))
(assert (not (= symbol_23 symbol_5)))
(assert (not (= symbol_23 symbol_6)))
(assert (not (= symbol_23 symbol_7)))
(assert (not (= symbol_23 symbol_8)))
(assert (not (= symbol_23 symbol_9)))
(assert (not (= symbol_23 symbol_10)))
(assert (not (= symbol_23 symbol_11)))
(assert (not (= symbol_23 symbol_12)))
(assert (not (= symbol_23 symbol_13)))
(assert (not (= symbol_23 symbol_14)))
(assert (not (= symbol_23 symbol_15)))
(assert (not (= symbol_23 symbol_16)))
(assert (not (= symbol_23 symbol_17)))
(assert (not (= symbol_23 symbol_18)))
(assert (not (= symbol_23 symbol_19)))
(assert (not (= symbol_23 symbol_20)))
(assert (not (= symbol_23 symbol_21)))
(assert (not (= symbol_23 symbol_22)))
(assert (not (= symbol_22 symbol_0)))
(assert (not (= symbol_22 symbol_1)))
(assert (not (= symbol_22 symbol_2)))
(assert (not (= symbol_22 symbol_3)))
(assert (not (= symbol_22 symbol_4)))
(assert (not (= symbol_22 symbol_5)))
(assert (not (= symbol_22 symbol_6)))
(assert (not (= symbol_22 symbol_7)))
(assert (not (= symbol_22 symbol_8)))
(assert (not (= symbol_22 symbol_9)))
(assert (not (= symbol_22 symbol_10)))
(assert (not (= symbol_22 symbol_11)))
(assert (not (= symbol_22 symbol_12)))
(assert (not (= symbol_22 symbol_13)))
(assert (not (= symbol_22 symbol_14)))
(assert (not (= symbol_22 symbol_15)))
(assert (not (= symbol_22 symbol_16)))
(assert (not (= symbol_22 symbol_17)))
(assert (not (= symbol_22 symbol_18)))
(assert (not (= symbol_22 symbol_19)))
(assert (not (= symbol_22 symbol_20)))
(assert (not (= symbol_22 symbol_21)))
(assert (not (= symbol_21 symbol_0)))
(assert (not (= symbol_21 symbol_1)))
(assert (not (= symbol_21 symbol_2)))
(assert (not (= symbol_21 symbol_3)))
(assert (not (= symbol_21 symbol_4)))
(assert (not (= symbol_21 symbol_5)))
(assert (not (= symbol_21 symbol_6)))
(assert (not (= symbol_21 symbol_7)))
(assert (not (= symbol_21 symbol_8)))
(assert (not (= symbol_21 symbol_9)))
(assert (not (= symbol_21 symbol_10)))
(assert (not (= symbol_21 symbol_11)))
(assert (not (= symbol_21 symbol_12)))
(assert (not (= symbol_21 symbol_13)))
(assert (not (= symbol_21 symbol_14)))
(assert (not (= symbol_21 symbol_15)))
(assert (not (= symbol_21 symbol_16)))
(assert (not (= symbol_21 symbol_17)))
(assert (not (= symbol_21 symbol_18)))
(assert (not (= symbol_21 symbol_19)))
(assert (not (= symbol_21 symbol_20)))
(assert (not (= symbol_20 symbol_0)))
(assert (not (= symbol_20 symbol_1)))
(assert (not (= symbol_20 symbol_2)))
(assert (not (= symbol_20 symbol_3)))
(assert (not (= symbol_20 symbol_4)))
(assert (not (= symbol_20 symbol_5)))
(assert (not (= symbol_20 symbol_6)))
(assert (not (= symbol_20 symbol_7)))
(assert (not (= symbol_20 symbol_8)))
(assert (not (= symbol_20 symbol_9)))
(assert (not (= symbol_20 symbol_10)))
(assert (not (= symbol_20 symbol_11)))
(assert (not (= symbol_20 symbol_12)))
(assert (not (= symbol_20 symbol_13)))
(assert (not (= symbol_20 symbol_14)))
(assert (not (= symbol_20 symbol_15)))
(assert (not (= symbol_20 symbol_16)))
(assert (not (= symbol_20 symbol_17)))
(assert (not (= symbol_20 symbol_18)))
(assert (not (= symbol_20 symbol_19)))
(assert (not (= symbol_19 symbol_0)))
(assert (not (= symbol_19 symbol_1)))
(assert (not (= symbol_19 symbol_2)))
(assert (not (= symbol_19 symbol_3)))
(assert (not (= symbol_19 symbol_4)))
(assert (not (= symbol_19 symbol_5)))
(assert (not (= symbol_19 symbol_6)))
(assert (not (= symbol_19 symbol_7)))
(assert (not (= symbol_19 symbol_8)))
(assert (not (= symbol_19 symbol_9)))
(assert (not (= symbol_19 symbol_10)))
(assert (not (= symbol_19 symbol_11)))
(assert (not (= symbol_19 symbol_12)))
(assert (not (= symbol_19 symbol_13)))
(assert (not (= symbol_19 symbol_14)))
(assert (not (= symbol_19 symbol_15)))
(assert (not (= symbol_19 symbol_16)))
(assert (not (= symbol_19 symbol_17)))
(assert (not (= symbol_19 symbol_18)))
(assert (not (= symbol_18 symbol_0)))
(assert (not (= symbol_18 symbol_1)))
(assert (not (= symbol_18 symbol_2)))
(assert (not (= symbol_18 symbol_3)))
(assert (not (= symbol_18 symbol_4)))
(assert (not (= symbol_18 symbol_5)))
(assert (not (= symbol_18 symbol_6)))
(assert (not (= symbol_18 symbol_7)))
(assert (not (= symbol_18 symbol_8)))
(assert (not (= symbol_18 symbol_9)))
(assert (not (= symbol_18 symbol_10)))
(assert (not (= symbol_18 symbol_11)))
(assert (not (= symbol_18 symbol_12)))
(assert (not (= symbol_18 symbol_13)))
(assert (not (= symbol_18 symbol_14)))
(assert (not (= symbol_18 symbol_15)))
(assert (not (= symbol_18 symbol_16)))
(assert (not (= symbol_18 symbol_17)))
(assert (not (= symbol_17 symbol_0)))
(assert (not (= symbol_17 symbol_1)))
(assert (not (= symbol_17 symbol_2)))
(assert (not (= symbol_17 symbol_3)))
(assert (not (= symbol_17 symbol_4)))
(assert (not (= symbol_17 symbol_5)))
(assert (not (= symbol_17 symbol_6)))
(assert (not (= symbol_17 symbol_7)))
(assert (not (= symbol_17 symbol_8)))
(assert (not (= symbol_17 symbol_9)))
(assert (not (= symbol_17 symbol_10)))
(assert (not (= symbol_17 symbol_11)))
(assert (not (= symbol_17 symbol_12)))
(assert (not (= symbol_17 symbol_13)))
(assert (not (= symbol_17 symbol_14)))
(assert (not (= symbol_17 symbol_15)))
(assert (not (= symbol_17 symbol_16)))
(assert (not (= symbol_16 symbol_0)))
(assert (not (= symbol_16 symbol_1)))
(assert (not (= symbol_16 symbol_2)))
(assert (not (= symbol_16 symbol_3)))
(assert (not (= symbol_16 symbol_4)))
(assert (not (= symbol_16 symbol_5)))
(assert (not (= symbol_16 symbol_6)))
(assert (not (= symbol_16 symbol_7)))
(assert (not (= symbol_16 symbol_8)))
(assert (not (= symbol_16 symbol_9)))
(assert (not (= symbol_16 symbol_10)))
(assert (not (= symbol_16 symbol_11)))
(assert (not (= symbol_16 symbol_12)))
(assert (not (= symbol_16 symbol_13)))
(assert (not (= symbol_16 symbol_14)))
(assert (not (= symbol_16 symbol_15)))
(assert (not (= symbol_15 symbol_0)))
(assert (not (= symbol_15 symbol_1)))
(assert (not (= symbol_15 symbol_2)))
(assert (not (= symbol_15 symbol_3)))
(assert (not (= symbol_15 symbol_4)))
(assert (not (= symbol_15 symbol_5)))
(assert (not (= symbol_15 symbol_6)))
(assert (not (= symbol_15 symbol_7)))
(assert (not (= symbol_15 symbol_8)))
(assert (not (= symbol_15 symbol_9)))
(assert (not (= symbol_15 symbol_10)))
(assert (not (= symbol_15 symbol_11)))
(assert (not (= symbol_15 symbol_12)))
(assert (not (= symbol_15 symbol_13)))
(assert (not (= symbol_15 symbol_14)))
(assert (not (= symbol_14 symbol_0)))
(assert (not (= symbol_14 symbol_1)))
(assert (not (= symbol_14 symbol_2)))
(assert (not (= symbol_14 symbol_3)))
(assert (not (= symbol_14 symbol_4)))
(assert (not (= symbol_14 symbol_5)))
(assert (not (= symbol_14 symbol_6)))
(assert (not (= symbol_14 symbol_7)))
(assert (not (= symbol_14 symbol_8)))
(assert (not (= symbol_14 symbol_9)))
(assert (not (= symbol_14 symbol_10)))
(assert (not (= symbol_14 symbol_11)))
(assert (not (= symbol_14 symbol_12)))
(assert (not (= symbol_14 symbol_13)))
(assert (not (= symbol_13 symbol_0)))
(assert (not (= symbol_13 symbol_1)))
(assert (not (= symbol_13 symbol_2)))
(assert (not (= symbol_13 symbol_3)))
(assert (not (= symbol_13 symbol_4)))
(assert (not (= symbol_13 symbol_5)))
(assert (not (= symbol_13 symbol_6)))
(assert (not (= symbol_13 symbol_7)))
(assert (not (= symbol_13 symbol_8)))
(assert (not (= symbol_13 symbol_9)))
(assert (not (= symbol_13 symbol_10)))
(assert (not (= symbol_13 symbol_11)))
(assert (not (= symbol_13 symbol_12)))
(assert (not (= symbol_12 symbol_0)))
(assert (not (= symbol_12 symbol_1)))
(assert (not (= symbol_12 symbol_2)))
(assert (not (= symbol_12 symbol_3)))
(assert (not (= symbol_12 symbol_4)))
(assert (not (= symbol_12 symbol_5)))
(assert (not (= symbol_12 symbol_6)))
(assert (not (= symbol_12 symbol_7)))
(assert (not (= symbol_12 symbol_8)))
(assert (not (= symbol_12 symbol_9)))
(assert (not (= symbol_12 symbol_10)))
(assert (not (= symbol_12 symbol_11)))
(assert (not (= symbol_11 symbol_0)))
(assert (not (= symbol_11 symbol_1)))
(assert (not (= symbol_11 symbol_2)))
(assert (not (= symbol_11 symbol_3)))
(assert (not (= symbol_11 symbol_4)))
(assert (not (= symbol_11 symbol_5)))
(assert (not (= symbol_11 symbol_6)))
(assert (not (= symbol_11 symbol_7)))
(assert (not (= symbol_11 symbol_8)))
(assert (not (= symbol_11 symbol_9)))
(assert (not (= symbol_11 symbol_10)))
(assert (not (= symbol_10 symbol_0)))
(assert (not (= symbol_10 symbol_1)))
(assert (not (= symbol_10 symbol_2)))
(assert (not (= symbol_10 symbol_3)))
(assert (not (= symbol_10 symbol_4)))
(assert (not (= symbol_10 symbol_5)))
(assert (not (= symbol_10 symbol_6)))
(assert (not (= symbol_10 symbol_7)))
(assert (not (= symbol_10 symbol_8)))
(assert (not (= symbol_10 symbol_9)))
(assert (not (= symbol_9 symbol_0)))
(assert (not (= symbol_9 symbol_1)))
(assert (not (= symbol_9 symbol_2)))
(assert (not (= symbol_9 symbol_3)))
(assert (not (= symbol_9 symbol_4)))
(assert (not (= symbol_9 symbol_5)))
(assert (not (= symbol_9 symbol_6)))
(assert (not (= symbol_9 symbol_7)))
(assert (not (= symbol_9 symbol_8)))
(assert (not (= symbol_8 symbol_0)))
(assert (not (= symbol_8 symbol_1)))
(assert (not (= symbol_8 symbol_2)))
(assert (not (= symbol_8 symbol_3)))
(assert (not (= symbol_8 symbol_4)))
(assert (not (= symbol_8 symbol_5)))
(assert (not (= symbol_8 symbol_6)))
(assert (not (= symbol_8 symbol_7)))
(assert (not (= symbol_7 symbol_0)))
(assert (not (= symbol_7 symbol_1)))
(assert (not (= symbol_7 symbol_2)))
(assert (not (= symbol_7 symbol_3)))
(assert (not (= symbol_7 symbol_4)))
(assert (not (= symbol_7 symbol_5)))
(assert (not (= symbol_7 symbol_6)))
(assert (not (= symbol_6 symbol_0)))
(assert (not (= symbol_6 symbol_1)))
(assert (not (= symbol_6 symbol_2)))
(assert (not (= symbol_6 symbol_3)))
(assert (not (= symbol_6 symbol_4)))
(assert (not (= symbol_6 symbol_5)))
(assert (not (= symbol_5 symbol_0)))
(assert (not (= symbol_5 symbol_1)))
(assert (not (= symbol_5 symbol_2)))
(assert (not (= symbol_5 symbol_3)))
(assert (not (= symbol_5 symbol_4)))
(assert (not (= symbol_4 symbol_0)))
(assert (not (= symbol_4 symbol_1)))
(assert (not (= symbol_4 symbol_2)))
(assert (not (= symbol_4 symbol_3)))
(assert (not (= symbol_3 symbol_0)))
(assert (not (= symbol_3 symbol_1)))
(assert (not (= symbol_3 symbol_2)))
(assert (not (= symbol_2 symbol_0)))
(assert (not (= symbol_2 symbol_1)))
(assert (not (= symbol_1 symbol_0)))
(check-sat)